750
400 400
1 320 116
2 320 83
3 320 774
4 320 465
5 320 240
6 320 708
7 320 230
8 319 161
9 319 671
10 318 732
11 318 888
12 317 564
13 317 486
14 316 486
15 316 777
16 315 148
17 315 3
18 315 998
19 315 232
20 315 48
21 314 958
22 314 994
23 313 190
24 313 25
25 313 974
26 312 264
27 312 993
28 312 667
29 311 987
30 311 335
31 310 808
32 310 392
33 309 634
34 308 940
35 308 862
36 308 556
37 307 660
38 306 334
39 306 609
40 306 895
41 305 248
42 305 415
43 304 210
44 304 940
45 304 328
46 304 814
47 304 705
48 304 7
49 303 970
50 303 819
51 303 256
52 303 178
53 303 884
54 302 884
55 302 974
56 301 521
57 301 277
58 301 942
59 300 583
60 299 610
61 299 622
62 298 569
63 297 929
64 297 726
65 297 742
66 297 627
67 297 207
68 296 879
69 296 801
70 295 269
71 293 810
72 292 716
73 292 782
74 292 742
75 292 538
76 291 698
77 291 33
78 291 495
79 290 210
80 290 617
81 290 404
82 290 801
83 289 448
84 289 280
85 288 546
86 288 425
87 288 530
88 288 389
89 287 2
90 287 248
91 287 467
92 287 676
93 287 586
94 287 929
95 286 524
96 286 930
97 286 281
98 285 635
99 285 902
100 285 253
101 283 847
102 282 687
103 282 728
104 282 432
105 282 247
106 282 225
107 281 765
108 281 802
109 281 186
110 280 192
111 280 43
112 280 273
113 280 984
114 280 140
115 279 208
116 279 147
117 279 905
118 279 806
119 279 99
120 279 386
121 277 275
122 277 400
123 276 22
124 276 72
125 276 539
126 276 235
127 274 830
128 274 696
129 274 876
130 274 463
131 274 658
132 273 238
133 272 286
134 272 367
135 271 336
136 271 952
137 270 715
138 270 48
139 270 402
140 270 763
141 270 999
142 270 390
143 270 150
144 269 866
145 269 670
146 269 230
147 268 518
148 267 685
149 267 186
150 266 221
151 266 869
152 266 502
153 265 635
154 265 17
155 265 719
156 265 443
157 263 747
158 262 153
159 261 836
160 261 736
161 260 637
162 260 71
163 260 818
164 259 148
165 259 369
166 259 553
167 259 800
168 259 133
169 258 511
170 258 329
171 258 464
172 257 229
173 257 692
174 256 271
175 256 223
176 256 91
177 256 864
178 255 836
179 255 375
180 254 461
181 253 158
182 253 176
183 253 754
184 252 594
185 252 397
186 251 698
187 251 559
188 251 926
189 251 640
190 251 218
191 250 858
192 250 585
193 250 710
194 249 35
195 248 403
196 248 253
197 248 762
198 247 782
199 247 139
200 246 750
201 246 728
202 245 400
203 244 850
204 244 762
205 244 111
206 244 292
207 244 373
208 243 867
209 243 605
210 243 619
211 242 973
212 241 12
213 241 299
214 240 930
215 240 372
216 240 968
217 239 838
218 239 15
219 239 392
220 239 804
221 238 655
222 238 52
223 237 145
224 236 581
225 235 955
226 235 393
227 234 642
228 234 457
229 234 646
230 234 868
231 234 795
232 233 79
233 232 543
234 232 198
235 232 241
236 232 693
237 232 153
238 232 452
239 231 857
240 231 637
241 231 816
242 230 884
243 229 263
244 229 456
245 229 492
246 229 152
247 229 505
248 229 98
249 228 152
250 228 18
251 228 942
252 228 759
253 228 586
254 228 838
255 228 20
256 226 955
257 226 367
258 226 521
259 226 48
260 225 617
261 225 951
262 225 673
263 224 23
264 223 620
265 223 642
266 223 124
267 223 642
268 223 220
269 222 3
270 222 393
271 222 573
272 222 444
273 221 786
274 221 198
275 221 601
276 221 898
277 221 563
278 220 213
279 220 886
280 219 865
281 218 559
282 217 801
283 217 955
284 217 845
285 216 182
286 216 383
287 216 71
288 215 125
289 215 501
290 215 452
291 214 187
292 214 847
293 214 888
294 214 23
295 214 355
296 214 909
297 213 234
298 213 464
299 213 896
300 213 736
301 212 274
302 211 543
303 211 773
304 210 909
305 210 796
306 210 562
307 208 214
308 206 222
309 205 870
310 205 541
311 205 791
312 204 579
313 204 641
314 204 972
315 204 578
316 204 919
317 203 173
318 203 532
319 202 637
320 201 372
321 200 647
322 200 557
323 199 200
324 199 778
325 198 833
326 198 767
327 197 459
328 197 971
329 196 833
330 196 714
331 196 647
332 196 453
333 195 710
334 195 614
335 194 239
336 194 695
337 194 462
338 193 998
339 193 185
340 192 23
341 192 360
342 192 365
343 192 518
344 191 452
345 191 715
346 191 913
347 190 43
348 190 645
349 190 177
350 190 190
351 189 127
352 188 786
353 188 850
354 188 296
355 187 220
356 187 103
357 186 971
358 186 868
359 186 880
360 186 998
361 186 864
362 185 199
363 184 732
364 184 346
365 183 10
366 183 163
367 183 749
368 183 643
369 182 720
370 181 274
371 181 561
372 180 838
373 179 889
374 177 285
375 177 999
376 177 748
377 176 669
378 176 79
379 175 237
380 175 666
381 174 472
382 174 55
383 174 372
384 174 523
385 174 590
386 174 113
387 174 369
388 173 310
389 173 820
390 172 42
391 172 613
392 171 960
393 171 419
394 170 904
395 170 709
396 170 641
397 170 551
398 170 541
399 170 718
400 170 837
401 169 989
402 168 331
403 167 61
404 166 378
405 166 315
406 165 472
407 165 409
408 165 228
409 164 8
410 164 857
411 164 902
412 164 802
413 163 745
414 163 774
415 163 470
416 163 399
417 163 653
418 162 855
419 162 991
420 161 72
421 161 208
422 161 789
423 159 506
424 159 734
425 159 504
426 158 487
427 158 164
428 158 457
429 158 372
430 158 663
431 157 351
432 157 666
433 156 483
434 156 314
435 156 977
436 156 620
437 155 686
438 155 583
439 154 674
440 154 729
441 153 913
442 152 774
443 152 205
444 152 644
445 152 449
446 151 758
447 151 660
448 151 900
449 151 998
450 150 131
451 150 412
452 150 810
453 150 31
454 149 689
455 148 734
456 148 715
457 147 68
458 147 516
459 147 996
460 147 762
461 146 33
462 146 558
463 146 29
464 144 914
465 144 689
466 144 118
467 143 152
468 142 863
469 142 477
470 142 925
471 141 745
472 141 909
473 140 594
474 139 842
475 138 245
476 138 418
477 138 868
478 136 595
479 136 95
480 136 853
481 136 101
482 135 461
483 135 246
484 134 820
485 133 813
486 131 692
487 131 142
488 131 228
489 129 330
490 128 234
491 128 522
492 127 769
493 127 411
494 127 591
495 126 830
496 126 976
497 126 663
498 126 209
499 126 146
500 126 566
501 126 397
502 125 775
503 125 159
504 125 277
505 125 606
506 124 993
507 124 195
508 124 25
509 124 304
510 124 280
511 123 422
512 123 988
513 123 840
514 123 562
515 123 739
516 122 726
517 122 489
518 121 757
519 121 881
520 121 25
521 120 219
522 120 916
523 120 167
524 120 711
525 120 460
526 120 168
527 120 724
528 119 154
529 119 351
530 119 221
531 118 921
532 118 645
533 118 639
534 117 931
535 117 551
536 117 496
537 117 426
538 117 77
539 117 724
540 116 494
541 116 515
542 115 9
543 115 354
544 115 743
545 114 728
546 114 280
547 114 424
548 114 593
549 113 437
550 113 49
551 113 200
552 112 564
553 112 324
554 112 611
555 112 258
556 112 578
557 111 56
558 111 447
559 111 134
560 111 263
561 110 610
562 110 533
563 110 516
564 109 345
565 109 827
566 109 841
567 109 988
568 108 272
569 108 64
570 107 327
571 107 878
572 106 948
573 106 525
574 106 262
575 105 380
576 105 679
577 104 885
578 104 358
579 103 921
580 103 829
581 102 198
582 102 301
583 102 390
584 101 170
585 101 99
586 100 364
587 100 866
588 100 683
589 99 205
590 99 953
591 98 284
592 98 415
593 98 703
594 98 424
595 97 915
596 97 587
597 97 940
598 97 498
599 96 646
600 96 504
601 95 818
602 95 795
603 94 757
604 93 428
605 93 38
606 92 178
607 92 881
608 92 319
609 90 191
610 90 79
611 90 431
612 90 865
613 90 115
614 89 946
615 88 361
616 88 607
617 88 263
618 88 983
619 88 418
620 88 160
621 88 20
622 87 71
623 87 6
624 87 381
625 87 672
626 87 302
627 84 868
628 84 843
629 84 391
630 84 930
631 83 606
632 82 361
633 82 181
634 82 129
635 81 191
636 81 384
637 80 638
638 80 121
639 80 633
640 79 91
641 79 971
642 77 946
643 77 520
644 76 21
645 76 835
646 74 960
647 74 985
648 74 272
649 73 453
650 73 380
651 73 708
652 73 526
653 73 428
654 72 974
655 72 833
656 72 845
657 71 243
658 71 494
659 70 231
660 69 518
661 68 270
662 68 815
663 68 55
664 68 29
665 68 320
666 68 133
667 67 896
668 67 14
669 67 290
670 67 127
671 67 939
672 67 347
673 66 693
674 66 900
675 66 338
676 66 641
677 66 981
678 65 878
679 65 838
680 65 480
681 64 854
682 64 497
683 64 633
684 63 480
685 63 241
686 62 304
687 62 573
688 62 731
689 61 233
690 61 156
691 61 724
692 61 245
693 60 78
694 60 65
695 60 892
696 59 929
697 59 974
698 58 191
699 58 740
700 58 981
701 57 214
702 57 337
703 57 966
704 57 675
705 56 740
706 56 232
707 56 511
708 55 531
709 55 200
710 54 384
711 54 442
712 54 794
713 53 701
714 53 465
715 52 669
716 52 102
717 51 687
718 51 366
719 51 361
720 51 231
721 51 501
722 51 688
723 50 714
724 50 516
725 50 962
726 49 192
727 48 582
728 48 694
729 47 206
730 47 604
731 47 29
732 47 415
733 47 444
734 46 972
735 45 355
736 45 389
737 44 480
738 44 597
739 44 707
740 44 804
741 43 679
742 43 602
743 43 189
744 43 622
745 43 40
746 41 858
747 41 285
748 41 910
749 40 453
750 40 907
